id: 1196
name: neos-984165
group: miplib2010
method: 2

Gurobi 7.0.2 (linux64, Matlab) logging started Mon Mar 26 10:15:50 2018


Gurobi 7.0.2 (linux64) logging started Mon Mar 26 10:15:50 2018

Optimize a model with 6962 rows, 8883 columns and 36742 nonzeros
Coefficient statistics:
  Matrix range     [1e+00, 1e+00]
  Objective range  [1e+00, 5e+02]
  Bounds range     [1e+00, 2e+00]
  RHS range        [1e+00, 8e+00]
Presolve removed 41 rows and 1568 columns
Presolve time: 0.01s
Presolved: 6921 rows, 7315 columns, 36573 nonzeros

Ordering time: 0.07s

Barrier statistics:
 AA' NZ     : 7.266e+04
 Factor NZ  : 5.037e+05 (roughly 10 MBytes of memory)
 Factor Ops : 1.051e+08 (less than 1 second per iteration)
 Threads    : 4

                  Objective                Residual
Iter       Primal          Dual         Primal    Dual     Compl     Time
   0   1.99974888e+05  2.00000000e+00  2.15e+02 1.00e+01  6.80e+01     0s
   1   4.86963205e+04 -9.63582119e+03  3.37e+01 5.71e+00  1.35e+01     0s
   2   7.19224486e+03 -1.29257641e+04  1.32e+00 1.14e-13  1.24e+00     0s
   3   3.45825210e+03 -2.64838487e+03  1.91e-01 5.68e-14  3.11e-01     0s
   4   2.57609920e+03  1.65572928e+03  1.92e-02 5.68e-14  4.49e-02     0s
   5   2.31538991e+03  1.95965627e+03  5.45e-03 2.84e-14  1.73e-02     0s
   6   2.23030636e+03  2.12354095e+03  1.66e-03 5.68e-14  5.20e-03     0s
   7   2.20634410e+03  2.15721381e+03  7.54e-04 5.68e-14  2.39e-03     0s
   8   2.20068656e+03  2.16520713e+03  5.44e-04 5.68e-14  1.73e-03     0s
   9   2.19451807e+03  2.17899954e+03  3.13e-04 5.68e-14  7.56e-04     0s
  10   2.18779030e+03  2.18341268e+03  6.64e-05 5.68e-14  2.13e-04     0s
  11   2.18664169e+03  2.18562284e+03  2.23e-05 5.68e-14  4.96e-05     0s
  12   2.18603249e+03  2.18598588e+03  1.05e-06 5.68e-14  2.27e-06     0s
  13   2.18600003e+03  2.18599999e+03  1.32e-11 5.68e-14  2.27e-09     0s
  14   2.18600000e+03  2.18600000e+03  6.59e-11 1.14e-13  2.27e-12     0s

Barrier solved model in 14 iterations and 0.23 seconds
Optimal objective 2.18600000e+03

Crossover log...

       0 DPushes remaining with DInf 0.0000000e+00                 0s

    2026 PPushes remaining with PInf 0.0000000e+00                 0s
       0 PPushes remaining with PInf 0.0000000e+00                 0s

  Push phase complete: Pinf 0.0000000e+00, Dinf 3.2501523e-11      0s

Iteration    Objective       Primal Inf.    Dual Inf.      Time
    2579    2.1860000e+03   0.000000e+00   0.000000e+00      0s
    2579    2.1860000e+03   0.000000e+00   0.000000e+00      0s

Solved in 2579 iterations and 0.42 seconds
Optimal objective  2.186000000e+03
status: OPTIMAL
